CPXPARAM_Read_DataCheck                          1
Found incumbent of value 0.000000 after 0.00 sec. (0.03 ticks)
Tried aggregator 1 time.
MIP Presolve modified 1 coefficients.
Reduced MIP has 216 rows, 1005 columns, and 5015 nonzeros.
Reduced MIP has 1005 binaries, 0 generals, 0 SOSs, and 0 indicators.
Presolve time = 0.00 sec. (1.88 ticks)
Probing time = 0.00 sec. (1.42 ticks)
Tried aggregator 1 time.
Reduced MIP has 216 rows, 1005 columns, and 5015 nonzeros.
Reduced MIP has 1005 binaries, 0 generals, 0 SOSs, and 0 indicators.
Presolve time = 0.00 sec. (2.25 ticks)
Probing time = 0.00 sec. (1.42 ticks)
Clique table members: 1000.
MIP emphasis: balance optimality and feasibility.
MIP search method: dynamic search.
Parallel mode: deterministic, using up to 4 threads.
Root relaxation solution time = 0.00 sec. (3.21 ticks)

        Nodes                                         Cuts/
   Node  Left     Objective  IInf  Best Integer    Best Bound    ItCnt     Gap

*     0+    0                            0.0000     6497.0000              --- 
*     0+    0                         2057.0000     6497.0000           215.85%
      0     0     3534.6900     5     2057.0000     3534.6900      291   71.84%
      0     0     2707.3118   217     2057.0000     Cuts: 154      643   31.61%
      0     0     2539.7363   274     2057.0000     Cuts: 154      987   23.47%
*     0+    0                         2219.0000     2539.7363            14.45%
      0     0        cutoff           2219.0000     2219.0000     1237    0.00%
Elapsed time = 0.16 sec. (116.56 ticks, tree = 0.01 MB, solutions = 3)

Clique cuts applied:  392
Cover cuts applied:  8
Implied bound cuts applied:  1
Mixed integer rounding cuts applied:  11
Zero-half cuts applied:  2

Root node processing (before b&c):
  Real time             =    0.16 sec. (116.64 ticks)
Parallel b&c, 4 threads:
  Real time             =    0.00 sec. (0.00 ticks)
  Sync time (average)   =    0.00 sec.
  Wait time (average)   =    0.00 sec.
                          ------------
Total (root+branch&cut) =    0.16 sec. (116.64 ticks)
